sat
(:max-memory          18.41
 :memory              17.66
 :num-allocs          95939693
 :rlimit-count        408413
 :sls-constraints     2263
 :sls-ddfw-flips      8478764.00
 :sls-ddfw-reinits    41
 :sls-ddfw-restarts   260
 :sls-ddfw-shifts     3524104.00
 :sls.euf-conflict    2263
 :solve-eqs-elim-vars 5
 :solve-eqs-steps     12
 :time                6.92
 :total-time          6.86)
